# Solution for model GasLib-40
# Objective value = 2.3495891598228166e+01
loadshed[innode_1] 0
loadshed[innode_2] 0
loadshed[innode_3] 0
loadshed[innode_4] 0
loadshed[innode_5] 0
loadshed[innode_6] 0
loadshed[innode_7] 0
loadshed[innode_8] 0
loadshed[source_1] -1.9381575935629503e-01
loadshed[source_2] -2.5410313814644647e-02
loadshed[source_3] 3.6784932773461265e-01
loadshed[sink_1] 0
loadshed[sink_2] 0
loadshed[sink_3] 0
loadshed[sink_4] 0
loadshed[sink_5] 0
loadshed[sink_6] 0
loadshed[sink_7] 0
loadshed[sink_8] 0
loadshed[sink_9] 0
loadshed[sink_10] 0
loadshed[sink_11] 0
loadshed[sink_12] 1
loadshed[sink_13] 0
loadshed[sink_14] 0
loadshed[sink_15] 0
loadshed[sink_16] 0
loadshed[sink_17] 0
loadshed[sink_18] 0
loadshed[sink_19] 0
loadshed[sink_20] 0
loadshed[sink_21] 4.3669146078337817e-01
loadshed[sink_22] 0
loadshed[sink_23] 0
loadshed[sink_24] 0
loadshed[sink_25] 0
loadshed[sink_26] 0
loadshed[sink_27] 0
loadshed[sink_28] 0
loadshed[sink_29] 0
flow[source_1,sink_3] 1.8873066501212537e+02
flow[innode_1,sink_16] 1.6354166666666970e+01
flow[innode_6,sink_13] 1.4542291290836097e+01
flow[sink_13,sink_14] -1.8118753758305708e+00
flow[sink_14,sink_10] -1.8166042042497338e+01
flow[sink_25,sink_26] 1.5791212056877905e+02
flow[sink_26,sink_9] 8.1770833333333655e+01
flow[sink_9,sink_18] 6.5416666666666671e+01
flow[sink_26,sink_4] 5.9787120568778725e+01
flow[sink_4,sink_20] -4.7550321166328104e+01
flow[sink_18,sink_6] 4.9062500000000313e+01
flow[sink_25,innode_8] -1.5602233167878902e+02
flow[sink_6,sink_7] 0
flow[sink_6,sink_22] 3.2708333333333641e+01
flow[sink_7,sink_24] 2.5566608401771841e+01
flow[sink_22,sink_1] 1.6354166666666970e+01
flow[sink_24,sink_21] 9.21244173510517
flow[sink_21,sink_12] 0
flow[sink_7,sink_5] -41.9207750684385
flow[sink_5,sink_17] -5.8274941735105173e+01
flow[sink_17,sink_4] -9.0983275068439980e+01
flow[sink_17,sink_8] 1.6354166666668334e+01
flow[sink_3,sink_23] 16.3541666666697
flow[sink_8,sink_20] 0
flow[sink_25,sink_20] 6.3904487832994647e+01
flow[sink_25,sink_15] -9.6690734680487552e+01
flow[sink_15,sink_29] -62.9938578720697
flow[sink_29,sink_28] 1.6354166666667879e+01
flow[sink_29,sink_2] 66.4052101417512
flow[sink_2,sink_15] 5.0051043475084533e+01
flow[sink_29,innode_7] -1.6210740134715545e+02
flow[innode_4,sink_19] 9.9936875375844039e+01
flow[sink_19,innode_3] 3.2807244745217176e+01
flow[innode_4,innode_5] 0
flow[sink_27,innode_5] 0
flow[sink_27,sink_19] -1.6354166666679703e+01
flow[sink_10,sink_11] 3.2708333333333641e+01
flow[sink_10,innode_2] -3.4421297297280496e+01
flow[sink_10,innode_3] -3.2807244745217176e+01
flow[innode_6,sink_25] -1.4542291290836097e+01
flow[sink_11,innode_1] 1.6354166666666970e+01
flow[sink_19,innode_2] 3.4421297297280496e+01
flow[source_3,innode_4] 9.9936875375844039e+01
flow[source_2,innode_7] 1.6210740134715545e+02
flow[sink_3,innode_8] 1.5602233167878902e+02
pressure[innode_1] 7.4993543503536060e+01
pressure[innode_2] 7.6964552537914784e+01
pressure[innode_3] 7.6891904609443955e+01
pressure[innode_4] 81.01325
pressure[innode_5] 7.6613422540771282e+01
pressure[innode_6] 7.4362943246625775e+01
pressure[innode_7] 81.01325
pressure[innode_8] 8.0382395484591754e+01
pressure[source_1] 81.01325
pressure[source_2] 81.01325
pressure[source_3] 81.01325
pressure[sink_1] 5.2568927498055274e+01
pressure[sink_2] 7.4995393153263052e+01
pressure[sink_3] 8.0382395484591754e+01
pressure[sink_4] 5.5639796086522040e+01
pressure[sink_5] 4.7821653385594153e+01
pressure[sink_6] 5.4670005108442645e+01
pressure[sink_7] 3.0387130855575840e+01
pressure[sink_8] 5.1545630126068517e+01
pressure[sink_9] 5.8347089911900930e+01
pressure[sink_10] 75.1452448111396
pressure[sink_11] 7.4993543503536060e+01
pressure[sink_12] 1.0132499999999940e+00
pressure[sink_13] 7.4282774024982032e+01
pressure[sink_14] 7.4286016530304749e+01
pressure[sink_15] 74.8319875273892
pressure[sink_16] 7.3971893668718380e+01
pressure[sink_17] 5.2162715321482139e+01
pressure[sink_18] 5.5980119936702273e+01
pressure[sink_19] 7.6964552537914784e+01
pressure[sink_20] 5.9128308744210415e+01
pressure[sink_21] 1.0132499999999940e+00
pressure[sink_22] 5.3632696640410281e+01
pressure[sink_23] 8.0217677472931967e+01
pressure[sink_24] 1.1152692328371003e+00
pressure[sink_25] 7.4362943246625775e+01
pressure[sink_26] 6.3241285331612282e+01
pressure[sink_27] 7.6613422540771282e+01
pressure[sink_28] 7.6382229795361582e+01
pressure[sink_29] 7.6677512068978757e+01
interdiction[source_1,sink_3] 0
interdiction[innode_1,sink_16] 0
interdiction[innode_6,sink_13] 0
interdiction[sink_13,sink_14] 0
interdiction[sink_14,sink_10] 0
interdiction[sink_25,sink_26] 0
interdiction[sink_26,sink_9] 0
interdiction[sink_9,sink_18] 0
interdiction[sink_26,sink_4] 0
interdiction[sink_4,sink_20] 0
interdiction[sink_18,sink_6] 0
interdiction[sink_25,innode_8] 0
interdiction[sink_6,sink_7] 1
interdiction[sink_6,sink_22] 0
interdiction[sink_7,sink_24] 0
interdiction[sink_22,sink_1] 0
interdiction[sink_24,sink_21] 0
interdiction[sink_21,sink_12] 0
interdiction[sink_7,sink_5] 0
interdiction[sink_5,sink_17] 0
interdiction[sink_17,sink_4] 0
interdiction[sink_17,sink_8] 0
interdiction[sink_3,sink_23] 0
interdiction[sink_8,sink_20] 1
interdiction[sink_25,sink_20] 0
interdiction[sink_25,sink_15] 0
interdiction[sink_15,sink_29] 0
interdiction[sink_29,sink_28] 0
interdiction[sink_29,sink_2] 0
interdiction[sink_2,sink_15] 0
interdiction[sink_29,innode_7] 0
interdiction[innode_4,sink_19] 0
interdiction[sink_19,innode_3] 0
interdiction[innode_4,innode_5] 1
interdiction[sink_27,innode_5] 0
interdiction[sink_27,sink_19] 0
interdiction[sink_10,sink_11] 0
interdiction[sink_10,innode_2] 0
interdiction[sink_10,innode_3] 0
interdiction[innode_6,sink_25] 0
interdiction[sink_11,innode_1] 0
interdiction[sink_19,innode_2] 0
interdiction[source_3,innode_4] 0
interdiction[source_2,innode_7] 0
interdiction[sink_3,innode_8] 0
WCcheckFlow[source_1,sink_3] 39
WCcheckFlow[innode_1,sink_16] 1
WCcheckFlow[innode_6,sink_13] 13
WCcheckFlow[sink_13,sink_14] 12
WCcheckFlow[sink_14,sink_10] 11
WCcheckFlow[sink_25,sink_26] 15
WCcheckFlow[sink_26,sink_9] 5
WCcheckFlow[sink_9,sink_18] 4
WCcheckFlow[sink_26,sink_4] 9
WCcheckFlow[sink_4,sink_20] 1
WCcheckFlow[sink_18,sink_6] 3
WCcheckFlow[sink_25,innode_8] -36
WCcheckFlow[sink_6,sink_7] 0
WCcheckFlow[sink_6,sink_22] 2
WCcheckFlow[sink_7,sink_24] 3
WCcheckFlow[sink_22,sink_1] 1
WCcheckFlow[sink_24,sink_21] 2
WCcheckFlow[sink_21,sink_12] 1
WCcheckFlow[sink_7,sink_5] -4
WCcheckFlow[sink_5,sink_17] -5
WCcheckFlow[sink_17,sink_4] -7
WCcheckFlow[sink_17,sink_8] 1
WCcheckFlow[sink_3,sink_23] 1
WCcheckFlow[sink_8,sink_20] 0
WCcheckFlow[sink_25,sink_20] 0
WCcheckFlow[sink_25,sink_15] 6
WCcheckFlow[sink_15,sink_29] 5
WCcheckFlow[sink_29,sink_28] 1
WCcheckFlow[sink_29,sink_2] 1
WCcheckFlow[sink_2,sink_15] 0
WCcheckFlow[sink_29,innode_7] 2
WCcheckFlow[innode_4,sink_19] -2
WCcheckFlow[sink_19,innode_3] -5
WCcheckFlow[innode_4,innode_5] 0
WCcheckFlow[sink_27,innode_5] 1
WCcheckFlow[sink_27,sink_19] -2
WCcheckFlow[sink_10,sink_11] 3
WCcheckFlow[sink_10,innode_2] 1
WCcheckFlow[sink_10,innode_3] 6
WCcheckFlow[innode_6,sink_25] -14
WCcheckFlow[sink_11,innode_1] 2
WCcheckFlow[sink_19,innode_2] 0
WCcheckFlow[source_3,innode_4] -1
WCcheckFlow[source_2,innode_7] -1
WCcheckFlow[sink_3,innode_8] 37
